<number of tasks>
50

<cycle time>
1000

<order strength>
0.601


<task times>
1 57
2 208
3 139
4 88
5 164
6 75
7 35
8 129
9 144
10 181
11 61
12 117
13 271
14 165
15 315
16 127
17 204
18 131
19 220
20 34
21 103
22 119
23 306
24 157
25 208
26 108
27 105
28 188
29 204
30 88
31 133
32 174
33 28
34 110
35 25
36 95
37 115
38 220
39 38
40 166
41 57
42 182
43 21
44 112
45 135
46 73
47 213
48 164
49 81
50 115

<precedence relations>
1,4
1,5
1,6
1,7
2,5
2,6
2,7
3,5
3,6
3,7
4,8
5,9
5,10
6,9
6,10
7,9
7,10
8,11
9,11
9,12
9,13
10,11
10,12
10,13
11,14
11,17
12,16
12,17
13,15
13,19
14,18
15,24
16,21
16,25
17,19
17,20
17,21
18,23
19,22
19,24
19,25
20,50
21,24
21,31
22,26
23,28
24,27
24,30
25,29
25,30
25,31
26,33
27,34
28,36
29,35
30,32
30,37
30,38
31,36
32,40
33,39
34,41
35,43
36,42
36,45
37,44
38,44
38,45
39,46
40,49
41,47
42,48
43,49
45,49
45,50

<end>
